
Gurobi 9.0.3 (win64) logging started Sat Feb  5 17:52:54 2022

Changed value of parameter LogFile to logs\CRVRP_5-2-7-100_4_3.LOG
   Prev: logs\CRVRP_5-2-7-100_4_2.LOG  Default: 
Changed value of parameter Seed to 1588488599
   Prev: 1031964151  Min: 0  Max: 2000000000  Default: 0
Parameter Threads unchanged
   Value: 2  Min: 0  Max: 1024  Default: 0
Parameter TimeLimit unchanged
   Value: 60.0  Min: 0.0  Max: inf  Default: inf
Parameter Symmetry unchanged
   Value: 2  Min: -1  Max: 2  Default: -1
Parameter Cuts unchanged
   Value: 2  Min: -1  Max: 3  Default: -1
Parameter PreDepRow unchanged
   Value: 1  Min: -1  Max: 1  Default: -1
Parameter ScaleFlag unchanged
   Value: 1  Min: -1  Max: 3  Default: -1
Parameter NormAdjust unchanged
   Value: 0  Min: -1  Max: 3  Default: -1
Gurobi Optimizer version 9.0.3 build v9.0.3rc0 (win64)
Optimize a model with 1001 rows, 810 columns and 4006 nonzeros
Model fingerprint: 0x10dd05f9
Variable types: 32 continuous, 778 integer (522 binary)
Coefficient statistics:
  Matrix range     [1e+00, 1e+06]
  Objective range  [1e+00, 1e+00]
  Bounds range     [1e+00, 1e+04]
  RHS range        [1e+00, 1e+06]
Presolve removed 616 rows and 515 columns
Presolve time: 0.02s
Presolved: 385 rows, 295 columns, 2069 nonzeros
Variable types: 15 continuous, 280 integer (230 binary)

Root relaxation: objective 3.372064e+02, 234 iterations, 0.01 seconds

    Nodes    |    Current Node    |     Objective Bounds      |     Work
 Expl Unexpl |  Obj  Depth IntInf | Incumbent    BestBd   Gap | It/Node Time

     0     0  337.20636    0   39          -  337.20636      -     -    0s
H    0     0                    1248.5685090  337.20636  73.0%     -    0s
H    0     0                    1201.7229317  337.20636  71.9%     -    0s
     0     0  362.52692    0   49 1201.72293  362.52692  69.8%     -    0s
H    0     0                    1110.7512760  362.52692  67.4%     -    0s
     0     0  362.52692    0   49 1110.75128  362.52692  67.4%     -    0s
     0     0  375.16929    0   49 1110.75128  375.16929  66.2%     -    0s
     0     0  375.16929    0   49 1110.75128  375.16929  66.2%     -    0s
     0     0  382.80172    0   49 1110.75128  382.80172  65.5%     -    0s
     0     0  386.68589    0   54 1110.75128  386.68589  65.2%     -    0s
H    0     0                     968.2993471  386.68589  60.1%     -    0s
     0     0  386.81520    0   58  968.29935  386.81520  60.1%     -    0s
     0     0  386.81520    0   60  968.29935  386.81520  60.1%     -    0s
     0     0  388.36615    0   54  968.29935  388.36615  59.9%     -    0s
H    0     0                     655.5752385  388.36615  40.8%     -    0s
     0     0  388.36945    0   68  655.57524  388.36945  40.8%     -    0s
     0     0  388.36945    0   67  655.57524  388.36945  40.8%     -    0s
H    0     0                     530.5376709  388.36945  26.8%     -    0s
     0     2  388.38811    0   61  530.53767  388.38811  26.8%     -    0s
*  176    82              14     518.5685090  417.93361  19.4%  15.2    0s
H  220    92                     518.5685090  449.29157  13.4%  14.9    0s
*  276   117              21     490.5427186  449.29157  8.41%  13.9    0s
*  289   117              16     478.6410340  449.29157  6.13%  13.7    0s
H  843    84                     477.5968534  462.30954  3.20%  14.4    1s
*  880    98              20     477.5968533  473.96630  0.76%  14.2    1s
*  955   121              13     473.9663032  473.96630  0.00%  14.0    1s

Cutting planes:
  Gomory: 11
  Cover: 7
  Implied bound: 21
  Projected implied bound: 2
  Clique: 4
  MIR: 29
  Flow cover: 98
  Inf proof: 1
  Zero half: 6
  RLT: 97
  Relax-and-lift: 12

Explored 987 nodes (14342 simplex iterations) in 1.21 seconds
Thread count was 2 (of 8 available processors)

Solution count 10: 473.966 477.597 477.597 ... 968.299

Optimal solution found (tolerance 1.00e-04)
Best objective 4.739663032250e+02, best bound 4.739663032250e+02, gap 0.0000%
Discarded solution information
